Version identifier: 22.1.1.0 | 2022-11-28 | 9160aff4d
CPXPARAM_Threads                                 1
CPXPARAM_MIP_Strategy_VariableSelect             3
CPXPARAM_TimeLimit                               599.99998197299999
1 of 1 MIP starts provided solutions.
MIP start 'm1' defined initial solution with objective 143.0000.
Tried aggregator 1 time.
MIP Presolve eliminated 18 rows and 924 columns.
MIP Presolve modified 38 coefficients.
Reduced MIP has 1843 rows, 3080 columns, and 68312 nonzeros.
Reduced MIP has 3080 binaries, 0 generals, 0 SOSs, and 0 indicators.
Presolve time = 0.10 sec. (114.22 ticks)
Probing time = 0.02 sec. (12.48 ticks)
Tried aggregator 1 time.
Detecting symmetries...
MIP Presolve modified 10 coefficients.
Reduced MIP has 1843 rows, 3080 columns, and 68454 nonzeros.
Reduced MIP has 3080 binaries, 0 generals, 0 SOSs, and 0 indicators.
Presolve time = 0.09 sec. (105.10 ticks)
Probing time = 0.02 sec. (12.49 ticks)
Clique table members: 1223.
MIP emphasis: balance optimality and feasibility.
MIP search method: dynamic search.
Parallel mode: none, using 1 thread.
Root relaxation solution time = 0.03 sec. (25.85 ticks)

        Nodes                                         Cuts/
   Node  Left     Objective  IInf  Best Integer    Best Bound    ItCnt     Gap

*     0+    0                          143.0000    47586.0000              --- 
      0     0      308.0000    50      143.0000      308.0000      465  115.38%
*     0+    0                          308.0000      308.0000             0.00%
      0     0        cutoff            308.0000      308.0000      465    0.00%
Elapsed time = 0.42 sec. (399.43 ticks, tree = 0.01 MB, solutions = 2)

Root node processing (before b&c):
  Real time             =    0.42 sec. (399.58 ticks)
Sequential b&c:
  Real time             =    0.00 sec. (0.00 ticks)
                          ------------
Total (root+branch&cut) =    0.42 sec. (399.58 ticks)
Primal:	308
Dual:	308
Status:	Optimal
Time:	0.43
Sequence:
	0
	5
	9
	6
	10
	10
	9
	6
	9
	9
	0
	6
	9
	4
	9
	9
	6
	9
	9
	9
	9
	2
	6
	9
	9
	9
	6
	9
	9
	4
	4
	9
	4
	9
	9
	6
	9
	4
	9
	6
	9
	9
	9
	9
	9
	9
	6
	9
	9
	9
	9
	4
	6
	9
	4
	4
	9
	4
	4
	9
	4
	4
	9
	4
	4
	9
	4
	4
	9
	4
	9
	4
	9
	4
	6
	9
	5
	9
	3
	6
	4
	9
	4
	6
	0
	5
	4
	0
	6
	9
	5
	5
	0
	4
	4
	0
	5
	6
	2
	9
	9
	1
	1
	5
	4
	9
	9
	6
	9
	1
	1
	10
	9
	5
	6
	0
	9
	9
	6
	9
	5
	5
	9
	5
	5
	9
	5
	5
	9
	6
	5
	3
	9
	5
	6
	9
	5
	5
	9
	5
	6
	9
	5
	9
	6
	5
	1
	9
	9
	6
	9
	5
	9
	6
	9
	9
	9
	6
	0
	9
	5
	9
	9
	6
	9
	9
	9
	0
	9
	6
	0
	5
	9
	9
	6
	0
	9
	9
	9
	3
	9
	6
	9
	9
	9
	6
	9
	5
	9
	6
	0
	9
	9
	6
	9
	5
	0
	4
	6
	2
	5
	9
	5
	5
	9
	9
	6
	9
	2
	9
	9
	6
	4
	0
	5
	9
	6
	9
	0
	4
	6
	9
	9
	9
	6
	9
	9
	9
	6
	9
	2
	9
	6
	9
	9
	9
	9
	6
	4
	9
	9
	6
	9
	9
	9
	6
	9
	3
	2
	6
	9
	2
	4
	4
	9
	0
	6
	4
	0
	9
	9
	6
	9
	9
	9
	5
	6
	9
	0
	9
	9
	9
	6
	0
	9
	9
	6
	0
	9
	1
	1
	0
	9
	6
	5
	0
	9
	6
	5
	9
	1
	0
	9
	4
	0
	6
	9
	5
	5
	9
	6
	1
	5
	9
	10
	6
	1
	2
